(set-logic QF_S)
(declare-fun var0 () String)
(declare-fun var1 () String)
(declare-fun var2 () Int)
(declare-fun var3 () String)
(declare-fun var4 () String)
(declare-fun var5 () Int)
(declare-fun var6 () Int)
(declare-fun var7 () Int)
(assert (> (str.indexof var0 var1 var2) (str.indexof var3 var4 var5)))
(assert (<= (str.to.int var4) (str.to.int var0)))
(assert (<= var6 var7))
(assert (>= (str.indexof var0 var1 87) (str.to.int var1)))
(check-sat)